formal/manual_run/model/design_smt2.smt2
; SMT-LIBv2 description generated by Yosys 0.55+112 (git sha1 bf9aaac0f, clang++ 18.1.3 -fPIC -O3)
; yosys-smt2-module __top__
(declare-sort |__top___s| 0)
(declare-fun |__top___is| (|__top___s|) Bool)
; yosys-smt2-wire rst_n 1
(define-fun |__top___n rst_n| ((state |__top___s|)) Bool true)
(define-fun |__top___a| ((state |__top___s|)) Bool true)
(define-fun |__top___u| ((state |__top___s|)) Bool true)
(define-fun |__top___i| ((state |__top___s|)) Bool true)
(define-fun |__top___h| ((state |__top___s|)) Bool true)
(define-fun |__top___t| ((state |__top___s|) (next_state |__top___s|)) Bool true) ; end of module __top__
; yosys-smt2-topmod __top__
; end of yosys output
